p cnf 220 320
10 -8 -2 61 0
10 -8 -2 -61 0
2 10 8 62 0
2 10 8 -62 0
35 23 -38 63 0
35 23 -38 -63 0
33 -30 37 64 0
33 -30 37 -64 0
-12 53 50 65 0
-12 53 50 -65 0
-22 51 19 66 0
-22 51 19 -66 0
-49 5 27 67 0
-49 5 27 -67 0
12 53 -50 68 0
12 53 -50 -68 0
-3 -27 41 69 0
-3 -27 41 -69 0
7 -42 -18 70 0
7 -42 -18 -70 0
21 -32 -42 71 0
21 -32 -42 -71 0
31 -13 39 72 0
31 -13 39 -72 0
3 -27 -41 73 0
3 -27 -41 -73 0
-23 -32 50 74 0
-23 -32 50 -74 0
-45 37 -14 75 0
-45 37 -14 -75 0
38 -23 35 76 0
38 -23 35 -76 0
32 -21 -42 77 0
32 -21 -42 -77 0
-46 20 57 78 0
-46 20 57 -78 0
26 22 30 79 0
26 22 30 -79 0
37 30 -33 80 0
37 30 -33 -80 0
20 -56 29 81 0
20 -56 29 -81 0
-49 -27 -5 82 0
-49 -27 -5 -82 0
-40 25 -54 83 0
-40 25 -54 -83 0
-22 26 -30 84 0
-22 26 -30 -84 0
-60 -58 52 85 0
-60 -58 52 -85 0
-43 -11 -21 86 0
-43 -11 -21 -86 0
58 -17 -44 87 0
58 -17 -44 -87 0
-47 3 46 88 0
-47 3 46 -88 0
14 45 37 89 0
14 45 37 -89 0
-60 -52 58 90 0
-60 -52 58 -90 0
49 -5 27 91 0
49 -5 27 -91 0
21 -43 11 92 0
21 -43 11 -92 0
-45 25 10 93 0
-45 25 10 -93 0
-57 16 49 94 0
-57 16 49 -94 0
-54 -25 40 95 0
-54 -25 40 -95 0
40 -12 59 96 0
40 -12 59 -96 0
56 18 -9 97 0
56 18 -9 -97 0
27 3 41 98 0
27 3 41 -98 0
39 -31 13 99 0
39 -31 13 -99 0
-17 44 -58 100 0
-17 44 -58 -100 0
44 58 17 101 0
44 58 17 -101 0
52 60 58 102 0
52 60 58 -102 0
-39 -36 -55 103 0
-39 -36 -55 -103 0
-4 -51 7 104 0
-4 -51 7 -104 0
5 17 -26 105 0
5 17 -26 -105 0
4 7 51 106 0
4 7 51 -106 0
-24 -14 52 107 0
-24 -14 52 -107 0
-38 -35 -23 108 0
-38 -35 -23 -108 0
-44 28 -19 109 0
-44 28 -19 -109 0
47 46 -3 110 0
47 46 -3 -110 0
-53 -1 6 111 0
-53 -1 6 -111 0
-30 22 -26 112 0
-30 22 -26 -112 0
-8 28 -13 113 0
-8 28 -13 -113 0
33 -37 30 114 0
33 -37 30 -114 0
23 -35 38 115 0
23 -35 38 -115 0
23 -50 -32 116 0
23 -50 -32 -116 0
-59 -12 -40 117 0
-59 -12 -40 -117 0
-39 -13 -31 118 0
-39 -13 -31 -118 0
21 43 -11 119 0
21 43 -11 -119 0
2 -10 -8 120 0
2 -10 -8 -120 0
20 56 -29 121 0
20 56 -29 -121 0
19 -51 22 122 0
19 -51 22 -122 0
50 32 23 123 0
50 32 23 -123 0
-51 -22 -19 124 0
-51 -22 -19 -124 0
12 40 -59 125 0
12 40 -59 -125 0
-57 -16 -49 126 0
-57 -16 -49 -126 0
29 -20 56 127 0
29 -20 56 -127 0
36 -55 39 128 0
36 -55 39 -128 0
48 -38 2 129 0
48 -38 2 -129 0
38 2 -48 130 0
38 2 -48 -130 0
-52 60 -58 131 0
-52 60 -58 -131 0
-5 -26 -17 132 0
-5 -26 -17 -132 0
8 28 13 133 0
8 28 13 -133 0
-36 24 -9 134 0
-36 24 -9 -134 0
-51 4 -7 135 0
-51 4 -7 -135 0
-28 19 -44 136 0
-28 19 -44 -136 0
1 -4 -29 137 0
1 -4 -29 -137 0
18 -7 -42 138 0
18 -7 -42 -138 0
47 60 55 139 0
47 60 55 -139 0
43 16 -35 140 0
43 16 -35 -140 0
18 7 42 141 0
18 7 42 -141 0
34 -6 -15 142 0
34 -6 -15 -142 0
60 -47 -55 143 0
60 -47 -55 -143 0
-47 -46 -3 144 0
-47 -46 -3 -144 0
29 1 4 145 0
29 1 4 -145 0
-9 -24 36 146 0
-9 -24 36 -146 0
55 -60 -47 147 0
55 -60 -47 -147 0
-16 -43 -35 148 0
-16 -43 -35 -148 0
39 -36 55 149 0
39 -36 55 -149 0
17 -44 -58 150 0
17 -44 -58 -150 0
15 -6 -34 151 0
15 -6 -34 -151 0
-2 8 -10 152 0
-2 8 -10 -152 0
13 -8 -28 153 0
13 -8 -28 -153 0
14 -52 -24 154 0
14 -52 -24 -154 0
-21 43 11 155 0
-21 43 11 -155 0
-4 29 -1 156 0
-4 29 -1 -156 0
4 -1 -29 157 0
4 -1 -29 -157 0
-46 47 3 158 0
-46 47 3 -158 0
26 5 -17 159 0
26 5 -17 -159 0
16 57 -49 160 0
16 57 -49 -160 0
-56 -9 -18 161 0
-56 -9 -18 -161 0
-15 -34 6 162 0
-15 -34 6 -162 0
26 -5 17 163 0
26 -5 17 -163 0
57 -20 46 164 0
57 -20 46 -164 0
25 -10 45 165 0
25 -10 45 -165 0
48 -34 31 166 0
48 -34 31 -166 0
9 -56 18 167 0
9 -56 18 -167 0
11 -33 -54 168 0
11 -33 -54 -168 0
-26 30 -22 169 0
-26 30 -22 -169 0
-25 10 45 170 0
-25 10 45 -170 0
49 57 -16 171 0
49 57 -16 -171 0
59 41 15 172 0
59 41 15 -172 0
-41 -59 15 173 0
-41 -59 15 -173 0
14 -45 -37 174 0
14 -45 -37 -174 0
-1 53 -6 175 0
-1 53 -6 -175 0
-6 -53 1 176 0
-6 -53 1 -176 0
-28 8 -13 177 0
-28 8 -13 -177 0
-31 -48 -34 178 0
-31 -48 -34 -178 0
49 5 -27 179 0
49 5 -27 -179 0
31 -48 34 180 0
31 -48 34 -180 0
-7 -4 51 181 0
-7 -4 51 -181 0
-31 34 48 182 0
-31 34 48 -182 0
-24 -36 9 183 0
-24 -36 9 -183 0
-14 -52 24 184 0
-14 -52 24 -184 0
46 -57 20 185 0
46 -57 20 -185 0
38 -2 48 186 0
38 -2 48 -186 0
19 44 28 187 0
19 44 28 -187 0
-57 -20 -46 188 0
-57 -20 -46 -188 0
31 -39 13 189 0
31 -39 13 -189 0
-33 -11 54 190 0
-33 -11 54 -190 0
54 -40 -25 191 0
54 -40 -25 -191 0
-19 -28 44 192 0
-19 -28 44 -192 0
-60 -55 47 193 0
-60 -55 47 -193 0
6 53 1 194 0
6 53 1 -194 0
25 40 54 195 0
25 40 54 -195 0
14 52 24 196 0
14 52 24 -196 0
-20 -56 -29 197 0
-20 -56 -29 -197 0
55 -39 36 198 0
55 -39 36 -198 0
21 42 32 199 0
21 42 32 -199 0
16 -43 35 200 0
16 -43 35 -200 0
9 36 24 201 0
9 36 24 -201 0
6 15 34 202 0
6 15 34 -202 0
-50 32 -23 203 0
-50 32 -23 -203 0
-41 -3 27 204 0
-41 -3 27 -204 0
59 -41 -15 205 0
59 -41 -15 -205 0
56 9 -18 206 0
56 9 -18 -206 0
-45 -25 -10 207 0
-45 -25 -10 -207 0
22 -19 51 208 0
22 -19 51 -208 0
-30 -33 -37 209 0
-30 -33 -37 -209 0
-38 -48 -2 210 0
-38 -48 -2 -210 0
59 -40 12 211 0
59 -40 12 -211 0
-50 -53 -12 212 0
-50 -53 -12 -212 0
11 33 54 213 0
11 33 54 -213 0
-54 -11 33 214 0
-54 -11 33 -214 0
41 -59 -15 215 0
41 -59 -15 -215 0
-7 -18 42 216 0
-7 -18 42 -216 0
-14 45 -37 217 0
-14 45 -37 -217 0
42 -32 -21 218 0
42 -32 -21 -218 0
43 -16 35 219 0
43 -16 35 -219 0
12 50 -53 220 0
12 50 -53 -220 0

